========================================================== 
File name: C:\DEGR\assets\definitions\MSRCPSP_Gen\500_20_512_10_D.def
Creation date: Sat May 06 09:16:11 CEST 2023
Website: http://imopse.ii.pwr.edu.pl/ 
Reference: 
Myszkowski P. B., Skowronski M. E., Olech L., Oslizlo K., 
Hybrid Ant Colony Optimization in solving Multi-Skill Resource-Constrained Project Scheduling Problem, 
Soft Computing, DOI: DOI 10.1007/s00500-014-1455-x 
========================================================== 
General characteristics: 
Tasks: 500
Resources: 20
Precedence relations: 512
Number of skill types: 10
========================================================== 
ResourceID 	 Salary 	 Skills 
1	 	 	87.9	 	 Q7: 1 	  Q8: 0 	  Q2: 0 	  Q0: 0 	  Q9: 0 	 
2	 	 	71.0	 	 Q9: 2 	  Q2: 3 	  Q3: 2 	  Q0: 1 	  Q5: 1 	  Q6: 0 	 
3	 	 	81.2	 	 Q6: 2 	 
4	 	 	79.1	 	 Q7: 1 	  Q0: 0 	  Q8: 1 	  Q9: 2 	  Q4: 1 	  Q1: 1 	  Q2: 3 	 
5	 	 	76.1	 	 Q4: 1 	  Q5: 3 	  Q1: 1 	  Q3: 2 	  Q6: 0 	  Q8: 3 	  Q2: 3 	  Q9: 0 	 
6	 	 	77.1	 	 Q5: 1 	  Q1: 0 	  Q9: 0 	  Q6: 0 	  Q8: 0 	  Q4: 0 	  Q0: 2 	  Q7: 3 	 
7	 	 	40.6	 	 Q0: 1 	  Q7: 0 	 
8	 	 	12.4	 	 Q2: 0 	  Q7: 1 	 
9	 	 	23.8	 	 Q0: 0 	  Q8: 3 	  Q4: 1 	  Q5: 1 	  Q1: 0 	  Q3: 3 	  Q7: 1 	  Q6: 1 	 
10	 	 	18.9	 	 Q9: 2 	  Q1: 2 	  Q8: 1 	  Q2: 3 	 
11	 	 	65.7	 	 Q7: 0 	  Q3: 0 	  Q8: 1 	  Q2: 0 	  Q6: 3 	  Q5: 1 	  Q1: 0 	 
12	 	 	81.8	 	 Q6: 3 	  Q3: 0 	  Q1: 1 	  Q9: 0 	  Q2: 3 	  Q7: 0 	  Q8: 1 	  Q5: 0 	  Q4: 3 	 
13	 	 	86.1	 	 Q9: 0 	 
14	 	 	99.2	 	 Q9: 3 	 
15	 	 	68.9	 	 Q4: 0 	  Q3: 1 	  Q8: 2 	  Q6: 2 	  Q5: 0 	 
16	 	 	17.6	 	 Q4: 0 	  Q7: 3 	  Q6: 2 	  Q3: 0 	  Q8: 1 	  Q9: 0 	 
17	 	 	79.9	 	 Q4: 0 	  Q5: 2 	  Q8: 0 	  Q7: 0 	  Q3: 2 	  Q0: 0 	  Q9: 1 	  Q6: 1 	 
18	 	 	32.0	 	 Q4: 2 	 
19	 	 	42.0	 	 Q5: 0 	  Q8: 0 	  Q2: 0 	  Q6: 1 	  Q3: 2 	  Q1: 1 	  Q0: 2 	  Q9: 1 	 
20	 	 	83.5	 	 Q0: 2 	  Q1: 3 	  Q5: 3 	 
========================================================== 
TaskID 	 Duration 	 Skill 	 Predecessor IDs 
1	27	Q3:	0
2	13	Q3:	0
3	20	Q5:	2
4	11	Q5:	1
5	19	Q6:	0
6	13	Q0:	0
7	15	Q6:	2
8	20	Q1:	0
9	24	Q9:	1
10	38	Q7:	1
11	28	Q4:	1
12	35	Q3:	3
13	27	Q7:	0
14	11	Q6:	3
15	16	Q6:	3	1
16	19	Q7:	1
17	34	Q6:	0
18	32	Q8:	3
19	28	Q4:	3
20	24	Q8:	3
21	38	Q9:	2
22	13	Q1:	2
23	21	Q1:	2
24	12	Q6:	2
25	37	Q8:	1
26	33	Q1:	0
27	12	Q5:	1
28	19	Q6:	0
29	21	Q9:	0
30	40	Q2:	3
31	20	Q0:	0
32	23	Q2:	0
33	18	Q9:	0
34	37	Q4:	1
35	29	Q8:	2
36	11	Q3:	1
37	10	Q8:	2
38	22	Q2:	3
39	38	Q7:	0
40	14	Q5:	3
41	17	Q3:	1
42	9	Q5:	1
43	34	Q5:	0
44	22	Q5:	3
45	25	Q9:	3
46	21	Q1:	3
47	25	Q4:	3
48	18	Q9:	3	47
49	33	Q9:	2	8
50	14	Q5:	3
51	36	Q4:	1
52	13	Q4:	2
53	37	Q5:	2
54	38	Q3:	0
55	14	Q2:	0
56	18	Q1:	3
57	18	Q2:	0
58	32	Q1:	0
59	31	Q2:	3
60	25	Q0:	1	24
61	32	Q1:	1	19
62	35	Q5:	3
63	28	Q7:	0
64	29	Q3:	3
65	34	Q3:	2
66	23	Q8:	2
67	34	Q5:	0
68	19	Q6:	3	13
69	26	Q8:	1
70	21	Q8:	3	46
71	29	Q7:	1
72	16	Q4:	0	47
73	36	Q3:	0
74	31	Q5:	3
75	15	Q5:	0	40	47
76	39	Q8:	3
77	36	Q6:	3
78	33	Q5:	2
79	29	Q5:	2
80	18	Q3:	2	65
81	21	Q5:	1	57
82	14	Q0:	2
83	36	Q6:	3
84	31	Q0:	2
85	19	Q2:	3
86	40	Q8:	2
87	38	Q1:	3
88	18	Q6:	1
89	31	Q2:	3	13
90	26	Q4:	2
91	24	Q1:	0	82
92	20	Q6:	0	31
93	13	Q4:	2
94	12	Q3:	3
95	31	Q5:	0
96	21	Q6:	2
97	37	Q1:	3
98	13	Q1:	3
99	27	Q4:	2
100	24	Q1:	1	99
101	20	Q3:	3
102	26	Q7:	0
103	24	Q8:	2
104	37	Q6:	2
105	27	Q8:	3
106	26	Q9:	2
107	40	Q8:	0
108	14	Q2:	0
109	26	Q0:	0
110	35	Q2:	3	86
111	10	Q3:	3
112	27	Q4:	0
113	35	Q4:	2
114	25	Q5:	2	93	2
115	33	Q9:	3	29	7
116	40	Q0:	2	40	18	62
117	36	Q5:	3
118	14	Q1:	2
119	9	Q9:	0
120	31	Q0:	2
121	19	Q5:	1	89
122	9	Q3:	3
123	28	Q4:	3	9	35	30
124	21	Q3:	2
125	18	Q3:	0
126	36	Q3:	1	48
127	30	Q0:	1	87	95
128	22	Q9:	3
129	29	Q0:	2
130	38	Q3:	3
131	18	Q6:	3	125
132	16	Q0:	0
133	26	Q4:	1
134	38	Q7:	0	96
135	17	Q7:	3
136	31	Q8:	0	87
137	28	Q3:	1
138	34	Q4:	3
139	18	Q5:	0
140	26	Q5:	2
141	24	Q9:	0
142	35	Q1:	1
143	15	Q5:	1	79
144	33	Q6:	2	119
145	30	Q7:	3	51	68
146	36	Q7:	3
147	33	Q3:	3	103	21
148	39	Q6:	0	68
149	33	Q6:	2	57	13
150	26	Q9:	0
151	27	Q5:	1	3	105
152	11	Q8:	3
153	26	Q3:	1	16
154	35	Q4:	3
155	16	Q9:	3	147
156	33	Q8:	1
157	40	Q5:	3	96
158	26	Q4:	2	63
159	15	Q2:	0
160	15	Q4:	0	17
161	11	Q0:	1
162	26	Q2:	0	88
163	24	Q6:	3	130
164	38	Q6:	3
165	27	Q5:	2
166	28	Q5:	3	122
167	11	Q3:	0	152	61
168	38	Q9:	0
169	11	Q9:	3
170	28	Q1:	0	144
171	14	Q9:	3
172	11	Q1:	1
173	23	Q1:	1
174	23	Q2:	3	114
175	32	Q9:	2	87
176	28	Q3:	1
177	34	Q9:	2
178	33	Q9:	1	160	95
179	31	Q3:	0
180	33	Q2:	3
181	33	Q7:	0	125
182	21	Q8:	0
183	15	Q4:	3	73
184	30	Q6:	3	149	167
185	17	Q4:	2
186	32	Q9:	2	129
187	33	Q4:	3	185
188	40	Q3:	0
189	23	Q8:	2	165
190	9	Q6:	1	34
191	15	Q1:	3
192	32	Q8:	2	48
193	23	Q5:	3	68	116
194	13	Q1:	0	78
195	15	Q6:	0	121
196	21	Q5:	1	63
197	37	Q8:	1	100
198	11	Q3:	0
199	15	Q5:	0	95	132	174	98
200	25	Q1:	1
201	9	Q5:	1
202	27	Q2:	0
203	32	Q1:	1	93
204	12	Q1:	2
205	33	Q3:	2
206	37	Q4:	0
207	37	Q3:	2
208	37	Q7:	3	97	63
209	27	Q0:	0	196
210	26	Q4:	1
211	31	Q5:	0
212	27	Q8:	0	183	157	196
213	38	Q3:	3	94	105	36
214	16	Q8:	1	6
215	36	Q5:	1	45
216	24	Q7:	3
217	40	Q2:	0
218	24	Q1:	3	24
219	11	Q9:	2	199	69
220	11	Q7:	3
221	38	Q3:	2	138
222	38	Q0:	0	92
223	17	Q4:	1
224	31	Q6:	0
225	23	Q4:	1	17
226	37	Q3:	0
227	11	Q4:	1	91
228	15	Q9:	2
229	16	Q0:	0	74
230	13	Q9:	3	192	73
231	15	Q3:	1	44
232	20	Q1:	1	63
233	40	Q4:	2	228
234	30	Q4:	1
235	23	Q4:	2	146	206
236	30	Q7:	3	106	219
237	34	Q1:	3	128
238	15	Q6:	0	80	227
239	17	Q1:	3
240	34	Q7:	1
241	21	Q5:	1	68
242	10	Q9:	0	164
243	14	Q0:	2	125	11
244	37	Q5:	2	63	228
245	40	Q6:	3
246	23	Q9:	1	47	153
247	20	Q5:	3	112
248	25	Q2:	3	65
249	24	Q2:	0
250	24	Q7:	0	23	237
251	10	Q0:	2	216	201
252	38	Q9:	1	35
253	22	Q7:	3
254	36	Q8:	3	223	215
255	21	Q9:	2	31
256	34	Q7:	1
257	33	Q5:	1	32
258	10	Q0:	0	73	111
259	20	Q3:	3	129	212
260	38	Q0:	0	127
261	38	Q1:	0	208
262	32	Q2:	0	254
263	21	Q5:	2
264	25	Q3:	1	149	213	242
265	22	Q5:	0	200	49
266	14	Q8:	2	103
267	39	Q2:	3
268	34	Q8:	0	193	77	1
269	38	Q8:	0	203
270	35	Q0:	1	181
271	29	Q7:	0	212
272	15	Q9:	1
273	17	Q9:	0	36	60
274	30	Q6:	0	254
275	40	Q7:	1
276	39	Q1:	2
277	32	Q3:	2
278	29	Q2:	3
279	26	Q8:	1	174
280	20	Q3:	0	212
281	20	Q1:	2	273
282	15	Q8:	0	63	189
283	15	Q9:	0	230
284	30	Q5:	0
285	32	Q5:	2	211	188
286	20	Q1:	3
287	15	Q2:	0	158	203
288	19	Q4:	1	20	275	13	219
289	9	Q4:	3
290	12	Q9:	1	136	79	230
291	14	Q1:	0	275	5
292	34	Q0:	0
293	23	Q6:	1	171
294	25	Q8:	1	90	124
295	16	Q3:	1	266
296	39	Q5:	3	68
297	36	Q0:	0
298	40	Q4:	1	178
299	36	Q8:	3	90	137
300	18	Q7:	0
301	32	Q0:	2
302	26	Q9:	1
303	15	Q6:	0
304	24	Q3:	3	211
305	36	Q1:	1	98
306	38	Q1:	1
307	37	Q9:	3	193
308	32	Q8:	3	207
309	34	Q2:	3	8	299	119	137
310	34	Q6:	1	300
311	19	Q1:	3
312	38	Q1:	3
313	18	Q5:	2	100
314	21	Q4:	2	197	47
315	40	Q3:	1
316	31	Q8:	2	40	283	62	260
317	35	Q2:	3	218
318	30	Q9:	2	258
319	12	Q0:	1	188	5
320	10	Q5:	1	147
321	30	Q6:	1	112	27
322	22	Q3:	1	143	240
323	14	Q5:	2	132	229	75	69	39
324	27	Q6:	1	243
325	19	Q9:	3	268	63
326	39	Q5:	0	113
327	23	Q3:	2	74	122
328	27	Q4:	2
329	30	Q7:	0
330	17	Q2:	3
331	36	Q4:	1	270
332	27	Q0:	1
333	21	Q9:	3
334	22	Q9:	2	122	239
335	10	Q4:	2
336	27	Q0:	2	15
337	28	Q4:	3	166
338	38	Q8:	2	126	250	145	109
339	22	Q5:	2	42
340	30	Q8:	2	327
341	28	Q7:	1
342	15	Q9:	3	69	54	165
343	24	Q1:	2	133	103
344	26	Q5:	0	213
345	9	Q8:	0	66	190
346	39	Q3:	1	256	248
347	34	Q4:	1	305
348	27	Q5:	0
349	17	Q6:	1	81	228	265
350	40	Q3:	2	269
351	9	Q5:	0
352	16	Q8:	2	239	282
353	24	Q1:	0	16
354	33	Q1:	0
355	20	Q8:	0	50	329	338
356	33	Q8:	1	21	64	335
357	15	Q3:	3	198	112	167	45	213
358	27	Q9:	3	296
359	9	Q1:	3
360	15	Q8:	3	312
361	36	Q9:	2	239	337
362	10	Q4:	1	38
363	16	Q7:	3
364	9	Q1:	0
365	20	Q1:	2	296
366	13	Q4:	0	80	145	117
367	33	Q7:	1
368	40	Q9:	0
369	15	Q4:	2	303
370	14	Q9:	1	190
371	29	Q4:	1	153	368	75
372	10	Q3:	3	221	24	70	41
373	29	Q4:	3	217
374	39	Q5:	3
375	40	Q6:	2	87
376	12	Q9:	0	15	333	327
377	14	Q7:	0	206	267
378	32	Q1:	0	305
379	29	Q4:	2	214	377
380	26	Q5:	0	194	319
381	11	Q4:	0	84
382	40	Q3:	1	181	294
383	38	Q9:	1	95	189
384	11	Q3:	0	297	168
385	10	Q8:	0
386	25	Q6:	3	24
387	15	Q6:	0
388	35	Q7:	0	187
389	17	Q9:	3	323
390	24	Q0:	2	10
391	24	Q6:	1	303	130	96	371
392	10	Q9:	1	34
393	19	Q2:	0
394	25	Q6:	0
395	24	Q4:	2
396	17	Q3:	0	188	143	184
397	17	Q5:	3	141	257
398	33	Q0:	1	136
399	22	Q0:	2	61
400	24	Q9:	1	169	288	75
401	19	Q4:	3	319	332
402	36	Q4:	3	169
403	23	Q5:	0
404	24	Q1:	0
405	38	Q2:	3	117
406	29	Q4:	3	384	102
407	24	Q6:	2	279	370
408	35	Q2:	0	220	393
409	30	Q6:	3
410	32	Q0:	2	220	286	35	250
411	40	Q7:	0	334
412	35	Q1:	2	366	324	334	293
413	34	Q5:	0
414	23	Q0:	0
415	15	Q6:	2	140	253	99	72
416	19	Q6:	3
417	28	Q7:	3	316
418	32	Q3:	0	334	283	63	126
419	39	Q7:	0	244	214	125
420	39	Q7:	3
421	32	Q5:	1	61
422	13	Q9:	0	234	298	187
423	32	Q1:	0
424	20	Q7:	1	310	322
425	13	Q1:	0	173	204	348	182
426	14	Q5:	3	113	259
427	14	Q3:	1	163
428	37	Q6:	3	210
429	11	Q0:	2	223
430	19	Q6:	0	173	112
431	30	Q5:	0	130	366	356
432	29	Q1:	3	216	22
433	25	Q7:	1	114
434	12	Q9:	1
435	11	Q8:	1	414
436	31	Q8:	3	435	143	210	409
437	28	Q1:	0	277	395
438	13	Q1:	1	156	281
439	9	Q3:	2	9	310
440	35	Q3:	3	381	348	433	365
441	14	Q9:	3	268	285	319	371
442	26	Q3:	3	109
443	26	Q3:	0	17
444	30	Q6:	0	220	55	170
445	32	Q6:	0	381
446	17	Q3:	0	396
447	34	Q6:	0	109	40
448	39	Q4:	2	128
449	12	Q5:	3	227	320	257	15	258
450	31	Q4:	1	373	348
451	15	Q7:	1	168	84	167
452	39	Q7:	3	233
453	34	Q1:	3	295	203	448
454	21	Q1:	2	406	147
455	35	Q2:	3	420	68	27
456	22	Q7:	1	449	118
457	14	Q9:	0	391	353	92
458	19	Q0:	2
459	11	Q4:	3	427	404
460	27	Q7:	3
461	26	Q2:	3	254
462	11	Q3:	0	231	361	172	374
463	20	Q1:	0	418
464	40	Q1:	1	249	38	296	448	11
465	25	Q8:	2	152	165	217	346
466	27	Q5:	0	207	443
467	32	Q9:	3
468	25	Q1:	3	59	162	121
469	15	Q3:	1
470	34	Q5:	2	296
471	11	Q0:	1	51
472	16	Q9:	3	262	372
473	35	Q3:	2	13
474	10	Q6:	2	237
475	34	Q7:	0	302	61
476	18	Q1:	1	346	321
477	23	Q6:	0	309	369	347
478	28	Q1:	1	389	405
479	33	Q8:	2	201	203	2	434
480	24	Q7:	1	383	204	412
481	26	Q4:	2	68
482	32	Q6:	2	206	229
483	33	Q1:	1	147	311	336
484	14	Q5:	3	25	23
485	33	Q1:	2	479	13
486	31	Q2:	3	476	445
487	40	Q7:	3	255	394	199
488	27	Q6:	0	487	331
489	11	Q6:	0	76	253	320	386
490	11	Q6:	3	487
491	31	Q3:	2	155	195
492	39	Q3:	3	313	47	461	388	491
493	35	Q5:	3	131
494	32	Q3:	2	177
495	40	Q9:	2	340	412	247	359
496	9	Q3:	2	16	176
497	24	Q9:	2	350	377	21	17	433
498	20	Q8:	3	322	349
499	28	Q5:	1	9	54	97
500	11	Q5:	0	122	467	230
========================================================== 